
c turning on binary mode checking

c parsing input formula with 9074 variables and 32254 clauses

c finished parsing, read 3776 bytes from proof file

c detected empty clause; start verification via backward checking

c 585 of 32254 clauses in core                            

c 47 of 666 lemmas in core using 687 resolution steps

c 0 RAT lemmas in core; 0 redundant literals in core lemmas

s VERIFIED

c verification time: 0.061 seconds
